NAME : rnd44_20.tsp
TYPE : TSP
DIMENSION : 20
EDGE_WEIGHT_TYPE : EUC_2D
NODE_COORD_SECTION
1 232 162
2 943 137
3 266 974
4 480 372
5 90 654
6 966 720
7 883 13
8 59 663
9 575 141
10 654 522
11 936 616
12 282 381
13 242 356
14 179 398
15 131 673
16 116 681
17 748 255
18 67 117
19 623 623
20 614 931
